(set-logic QF_S)
(declare-fun var0 () String)
(assert (str.in.re var0 (re.++ (re.* (re.union (str.to.re "000") (str.to.re "1"))) (re.++ (re.union (re.union (str.to.re "22") (str.to.re "33")) (re.union (str.to.re "4") (str.to.re "555"))) (re.++ (re.* (re.* (str.to.re "6"))) (re.++ (re.union (re.union (str.to.re "777") (str.to.re "888")) (re.union (str.to.re "99") (str.to.re "aa"))) (re.++ (re.+ (re.union (str.to.re "bbb") (str.to.re "ccc"))) (re.++ (re.union (re.+ (str.to.re "dd")) (re.+ (str.to.re "e"))) (re.++ (re.union (re.+ (str.to.re "ff")) (re.+ (str.to.re "ggg"))) (re.++ (re.* (re.union (str.to.re "hhh") (str.to.re "i"))) (re.++ (re.* (re.+ (str.to.re "jj"))) (re.++ (re.* (re.+ (str.to.re "k"))) (re.++ (re.union (re.+ (str.to.re "lll")) (re.+ (str.to.re "mm"))) (re.++ (re.union (re.union (str.to.re "nn") (str.to.re "oo")) (re.union (str.to.re "p") (str.to.re "qqq"))) (re.++ (re.union (re.+ (str.to.re "r")) (re.+ (str.to.re "s"))) (re.++ (re.union (re.union (str.to.re "tt") (str.to.re "uu")) (re.union (str.to.re "v") (str.to.re "w"))) (re.++ (re.union (re.union (str.to.re "x") (str.to.re "yyy")) (re.union (str.to.re "z") (str.to.re "A"))) (re.++ (re.union (re.union (str.to.re "BB") (str.to.re "C")) (re.union (str.to.re "D") (str.to.re "EE"))) (re.++ (re.* (re.* (str.to.re "FF"))) (re.++ (re.union (re.union (str.to.re "G") (str.to.re "HH")) (re.union (str.to.re "II") (str.to.re "J"))) (re.++ (re.* (re.union (str.to.re "KKK") (str.to.re "LL"))) (re.++ (re.+ (re.* (str.to.re "M"))) (re.++ (re.+ (re.* (str.to.re "NN"))) (re.++ (re.* (re.+ (str.to.re "OOO"))) (re.++ (re.+ (re.+ (str.to.re "PP"))) (re.++ (re.* (re.+ (str.to.re "QQ"))) (re.* (re.union (str.to.re "R") (str.to.re "SSS")))))))))))))))))))))))))))))
(check-sat)